(set-info :Origin "This instance was generated by: BanditFuzz-- an RL fuzzer for SMT solvers" )
(set-info :Author "Joe Scott, Fed Mora, Vijay Ganesh" )
(set-info :Contact "Joe Scott, joseph.scott@uwaterloo.ca")
(set-logic QF_BV)
(declare-const bool_0 Bool)
(declare-const bool_1 Bool)
(declare-const bool_2 Bool)
(declare-const bool_3 Bool)
(declare-const bool_4 Bool)
(declare-const bv_0 (_ BitVec 32))
(declare-const bv_1 (_ BitVec 32))
(declare-const bv_2 (_ BitVec 32))
(declare-const bv_3 (_ BitVec 32))
(declare-const bv_4 (_ BitVec 32))
(assert (bvsge (bvadd (bvsrem #xf71e20c2  #x76cf8acf ) (bvadd bv_2 #x0c8c24c4 )) (bvsdiv (bvashr bv_1 bv_1) (bvnand #x9c343659  bv_4))))
(assert (bvslt (bvor (bvand bv_2 #xf369f1c6 ) (bvsrem bv_2 bv_3)) (bvashr (bvsrem #x47a8d881  bv_0) (bvor bv_3 #x05370680 ))))
(assert (bvugt (bvsrem (bvshl bv_1 bv_1) (bvmul bv_4 #xbcd27013 )) (bvshl (bvsdiv #x6a5a0cad  #x61db3530 ) (bvsdiv bv_4 #xe75686bb ))))
(assert (not (bvult (bvsrem bv_0 bv_1) (bvsmod #x0a4c6bdb  bv_0))))
(assert (bvule (bvsdiv (bvor #x4477378f  #x1278f961 ) (bvsmod #xe9fe2703  bv_3)) (bvlshr (bvurem #xd56449fd  #x378dbb19 ) (bvand #xe4e86fa5  #x3ae95365 ))))
(check-sat)
(exit)
